
Gurobi 11.0.1 (win64) logging started Wed May 15 12:31:14 2024

Set parameter LogFile to value "output/solver_log21.txt"
Gurobi Optimizer version 11.0.1 build v11.0.1rc0 (win64 - Windows 11.0 (22631.2))

CPU model: 11th Gen Intel(R) Core(TM) i7-1165G7 @ 2.80GHz, instruction set [SSE2|AVX|AVX2|AVX512]
Thread count: 4 physical cores, 8 logical processors, using up to 8 threads

Optimize a model with 2116 rows, 373 columns and 38625 nonzeros
Model fingerprint: 0x99e91a58
Variable types: 248 continuous, 125 integer (125 binary)
Coefficient statistics:
  Matrix range     [4e-01, 1e+05]
  Objective range  [1e+00, 1e+02]
  Bounds range     [1e+00, 1e+00]
  RHS range        [1e-02, 1e+05]

User MIP start produced solution with objective 76437.2 (0.00s)
User MIP start produced solution with objective 76437.2 (0.00s)
Loaded user MIP start with objective 76437.2

Presolve removed 102 rows and 98 columns
Presolve time: 0.04s
Presolved: 2014 rows, 275 columns, 38102 nonzeros
Variable types: 230 continuous, 45 integer (45 binary)

Root relaxation: cutoff, 74 iterations, 0.01 seconds (0.01 work units)

    Nodes    |    Current Node    |     Objective Bounds      |     Work
 Expl Unexpl |  Obj  Depth IntInf | Incumbent    BestBd   Gap | It/Node Time

     0     0     cutoff    0      76437.1601 76437.1601  0.00%     -    0s

Explored 1 nodes (74 simplex iterations) in 0.09 seconds (0.16 work units)
Thread count was 8 (of 8 available processors)

Solution count 2: 76437.2 76437.2 

Optimal solution found (tolerance 1.00e-04)
Best objective 7.643716007150e+04, best bound 7.643716007150e+04, gap 0.0000%
